language ESSENCE' 1.0
letting w be 8
letting n be 72
letting noCrates be 1
letting noGoals be 1
letting pInit be 26
letting stps be 11
letting crates be [35]
letting goals be [42]
letting noWalls be 30
letting walls be [0, 1, 2, 3, 4, 5, 6, 7, 8, 15, 16, 23, 24, 31, 32, 39, 40, 47, 48, 55, 56, 63, 64, 65, 66, 67, 68, 69, 70, 71]